benchmarks/bfuzz0/1571267011119232180266641653566973249.smt2
(set-logic QF_FP)
(declare-const x0 (_ FloatingPoint 11 53))
(declare-const x1 (_ FloatingPoint 11 53))
(declare-const x2 (_ FloatingPoint 11 53))
(declare-const x3 (_ FloatingPoint 11 53))
(declare-const x4 (_ FloatingPoint 11 53))
(declare-const x5 (_ FloatingPoint 11 53))
(declare-const x6 (_ FloatingPoint 11 53))
(declare-const x7 (_ FloatingPoint 11 53))
(declare-const x8 (_ FloatingPoint 11 53))
(declare-const x9 (_ FloatingPoint 11 53))
(declare-const x10 (_ FloatingPoint 11 53))
(declare-const x11 (_ FloatingPoint 11 53))
(declare-const x12 (_ FloatingPoint 11 53))
(declare-const x13 (_ FloatingPoint 11 53))
(declare-const x14 (_ FloatingPoint 11 53))
(declare-const x15 (_ FloatingPoint 11 53))
(declare-const x16 (_ FloatingPoint 11 53))
(declare-const x17 (_ FloatingPoint 11 53))
(declare-const x18 (_ FloatingPoint 11 53))
(declare-const x19 (_ FloatingPoint 11 53))
(assert (fp.gt (fp.div RNE (fp.neg (fp.mul RNE x19 x8)) (fp.div RNE (fp.mul RNE x8 x8) (fp.neg x12))) (fp.mul RNE (fp.sub RNE (fp.mul RNE x13 x11) (fp.sub RNE x15 x0)) (fp.add RNE (fp.neg x7) (fp.neg x8)))))
(assert (fp.geq (fp.sub RNE (fp.neg (fp.mul RNE x17 x11)) (fp.div RNE (fp.mul RNE x9 x17) (fp.neg x19))) (fp.sub RNE (fp.mul RNE (fp.neg x17) (fp.mul RNE x6 x15)) (fp.sub RNE (fp.mul RNE x18 x1) (fp.add RNE x1 x9)))))
(assert (fp.gt (fp.mul RNE (fp.add RNE (fp.neg x8) (fp.sub RNE x12 x12)) (fp.sub RNE (fp.sub RNE x7 x15) (fp.mul RNE x16 x11))) (fp.div RNE (fp.add RNE (fp.mul RNE x18 x7) (fp.add RNE x9 x6)) (fp.neg (fp.add RNE x15 x4)))))
(assert (fp.lt (fp.mul RNE (fp.div RNE (fp.add RNE x13 x14) (fp.neg x4)) (fp.sub RNE (fp.add RNE x7 x0) (fp.neg x1))) (fp.sub RNE (fp.div RNE (fp.add RNE x14 x16) (fp.div RNE x16 x11)) (fp.sub RNE (fp.neg x19) (fp.sub RNE x9 x6)))))
(assert (fp.gt (fp.mul RNE (fp.sub RNE (fp.sub RNE x15 x11) (fp.add RNE x15 x9)) (fp.neg (fp.div RNE x13 x13))) (fp.div RNE (fp.sub RNE (fp.add RNE x2 x1) (fp.neg x2)) (fp.sub RNE (fp.add RNE x5 x11) (fp.sub RNE x6 x17)))))
(assert (fp.lt (fp.neg (fp.mul RNE (fp.mul RNE x5 x5) (fp.mul RNE x19 x1))) (fp.neg (fp.add RNE (fp.mul RNE x4 x17) (fp.add RNE x9 x7)))))
(assert (fp.geq (fp.add RNE (fp.add RNE (fp.mul RNE x2 x8) (fp.sub RNE x19 x2)) (fp.div RNE (fp.neg x11) (fp.sub RNE x15 x11))) (fp.neg (fp.neg (fp.neg x6)))))
(assert (fp.eq (fp.div RNE (fp.neg (fp.mul RNE x14 x12)) (fp.mul RNE (fp.div RNE x19 x16) (fp.add RNE x4 x15))) (fp.sub RNE (fp.add RNE (fp.add RNE x13 x10) (fp.neg x18)) (fp.neg (fp.mul RNE x17 x17)))))
(assert (fp.geq (fp.mul RNE (fp.div RNE (fp.sub RNE x13 x11) (fp.neg x0)) (fp.neg (fp.add RNE x12 x17))) (fp.div RNE (fp.mul RNE (fp.mul RNE x11 x9) (fp.add RNE x9 x12)) (fp.add RNE (fp.mul RNE x7 x3) (fp.sub RNE x18 x2)))))
(assert (fp.lt (fp.neg (fp.mul RNE (fp.add RNE x13 x14) (fp.neg x19))) (fp.add RNE (fp.neg (fp.div RNE x13 x10)) (fp.add RNE (fp.neg x12) (fp.mul RNE x9 x17)))))
(check-sat)
