db/data/1571267011119232180266641653566973249.z3.out
-------------------
2500.372481029
